35 
300 
19.1 24.3 0 0
18.2 24 0 -27
12.6 24.9 20 -22
14.4 28 -20 -92
16.9 28.1 20 -12
20.7 28.2 20 -23
12.5 26.6 -20 -67
21.8 27.3 -20 -61
12.5 22.6 -20 -85
22.5 17 -30 -118
19.9 15 30 -25
14.9 15.1 -30 -113
11.5 18.6 30 -16
12.4 29.8 -30 -60
17.8 28.1 30 -15
9.1 29.8 40 -21
10 32.6 40 -19
13.9 33.1 40 -29
19.95 10.3 -40 -108
15.2 8 -40 -114
14.7 31.2 50 -25
7.4 36.5 50 -29
21 25.5 50 -28
18 25.3 -10 -79
19.5 24.7 -10 -80
21.4 21.8 10 -25
16 21.4 10 -26
18.65 26.2 10 -19
17.9 28.9 -10 -131
14.3 19.9 20 -29
17 19 -20 -69
10.8 21 -20 -67
15.7 23.7 10 -27
